\ Model Cl_25_Ins_5.lp
\ LP format - for model browsing. Use MPS format to capture full model detail.
Maximize
 
Subject To
 obj1: y[0] = 0
 obj2: y[1] = 0
 obj1_Exp: - y[0] + 98 x[0] + 96 x[1] + 96 x[2] + 94 x[3] + 89 x[4]
   + 86 x[5] + 85 x[6] + 83 x[7] + 82 x[8] + 78 x[9] + 64 x[10] + 51 x[11]
   + 50 x[12] + 47 x[13] + 46 x[14] + 42 x[15] + 40 x[16] + 34 x[17]
   + 33 x[18] + 30 x[19] + 17 x[20] + 15 x[21] + 13 x[22] + 12 x[23]
   + 10 x[24] = 0
 obj2_Exp: - y[1] + 52 x[0] + 56 x[1] + 63 x[2] + 40 x[3] + 10 x[4]
   + 7 x[5] + 51 x[6] + 86 x[7] + 64 x[8] + 39 x[9] + 52 x[10] + 84 x[11]
   + 8 x[12] + 21 x[13] + 62 x[14] + 33 x[15] + 23 x[16] + 16 x[17]
   + 40 x[18] + 49 x[19] + 97 x[20] + 46 x[21] + 51 x[22] + 21 x[23]
   + x[24] = 0
 Budget: 108 x[0] + 106 x[1] + 106 x[2] + 104 x[3] + 99 x[4] + 96 x[5]
   + 95 x[6] + 93 x[7] + 92 x[8] + 88 x[9] + 74 x[10] + 61 x[11] + 60 x[12]
   + 57 x[13] + 56 x[14] + 52 x[15] + 50 x[16] + 44 x[17] + 43 x[18]
   + 40 x[19] + 27 x[20] + 25 x[21] + 23 x[22] + 22 x[23] + 20 x[24]
   <= 739
Bounds
Binaries
 x[0] x[1] x[2] x[3] x[4] x[5] x[6] x[7] x[8] x[9] x[10] x[11] x[12] x[13]
 x[14] x[15] x[16] x[17] x[18] x[19] x[20] x[21] x[22] x[23] x[24]
Generals
 y[0] y[1]
End
